FourierSAT_Github_AIJ/benchmarks/MAXSAT_benchmarks/crafted/3/bipartite/maxcut-140-630-0.7/maxcut-140-630-0.7-6.cnf
c strEdges: 189  randomEdges: 441 
c degrees:  2  3 
c girth: 10 max: 8.032766  
c Hgirth mixed MAXCUT instance
c generated from an undirected graph
c to solve unweighted MaxCut
p cnf 140 1260
140 1 0
-140 -1 0
140 93 0
-140 -93 0
120 58 0
-120 -58 0
120 62 0
-120 -62 0
120 89 0
-120 -89 0
103 24 0
-103 -24 0
103 89 0
-103 -89 0
9 46 0
-9 -46 0
9 136 0
-9 -136 0
9 96 0
-9 -96 0
32 12 0
-32 -12 0
32 53 0
-32 -53 0
32 100 0
-32 -100 0
41 40 0
-41 -40 0
41 30 0
-41 -30 0
41 111 0
-41 -111 0
131 84 0
-131 -84 0
131 71 0
-131 -71 0
131 92 0
-131 -92 0
115 28 0
-115 -28 0
115 11 0
-115 -11 0
115 110 0
-115 -110 0
139 29 0
-139 -29 0
139 62 0
-139 -62 0
139 127 0
-139 -127 0
107 66 0
-107 -66 0
107 64 0
-107 -64 0
31 108 0
-31 -108 0
31 30 0
-31 -30 0
31 12 0
-31 -12 0
23 112 0
-23 -112 0
23 58 0
-23 -58 0
122 53 0
-122 -53 0
122 28 0
-122 -28 0
122 136 0
-122 -136 0
86 6 0
-86 -6 0
86 79 0
-86 -79 0
59 3 0
-59 -3 0
59 67 0
-59 -67 0
113 71 0
-113 -71 0
113 63 0
-113 -63 0
113 8 0
-113 -8 0
105 47 0
-105 -47 0
105 66 0
-105 -66 0
105 58 0
-105 -58 0
81 37 0
-81 -37 0
81 12 0
-81 -12 0
81 15 0
-81 -15 0
90 78 0
-90 -78 0
90 127 0
-90 -127 0
87 134 0
-87 -134 0
87 29 0
-87 -29 0
87 42 0
-87 -42 0
17 101 0
-17 -101 0
17 78 0
-17 -78 0
17 61 0
-17 -61 0
68 4 0
-68 -4 0
68 121 0
-68 -121 0
43 130 0
-43 -130 0
43 132 0
-43 -132 0
43 47 0
-43 -47 0
91 89 0
-91 -89 0
91 84 0
-91 -84 0
91 99 0
-91 -99 0
106 99 0
-106 -99 0
106 77 0
-106 -77 0
106 104 0
-106 -104 0
125 100 0
-125 -100 0
125 117 0
-125 -117 0
125 138 0
-125 -138 0
82 15 0
-82 -15 0
82 14 0
-82 -14 0
85 50 0
-85 -50 0
85 1 0
-85 -1 0
85 61 0
-85 -61 0
38 128 0
-38 -128 0
38 14 0
-38 -14 0
55 111 0
-55 -111 0
55 128 0
-55 -128 0
72 110 0
-72 -110 0
72 101 0
-72 -101 0
72 6 0
-72 -6 0
69 73 0
-69 -73 0
69 110 0
-69 -110 0
69 29 0
-69 -29 0
25 136 0
-25 -136 0
25 75 0
-25 -75 0
25 50 0
-25 -50 0
10 80 0
-10 -80 0
10 15 0
-10 -15 0
10 49 0
-10 -49 0
129 119 0
-129 -119 0
129 44 0
-129 -44 0
129 46 0
-129 -46 0
97 127 0
-97 -127 0
97 135 0
-97 -135 0
97 119 0
-97 -119 0
65 64 0
-65 -64 0
65 11 0
-65 -11 0
102 49 0
-102 -49 0
102 3 0
-102 -3 0
102 63 0
-102 -63 0
70 61 0
-70 -61 0
70 66 0
-70 -66 0
70 71 0
-70 -71 0
5 109 0
-5 -109 0
5 112 0
-5 -112 0
5 77 0
-5 -77 0
124 67 0
-124 -67 0
124 137 0
-124 -137 0
57 8 0
-57 -8 0
57 121 0
-57 -121 0
57 128 0
-57 -128 0
39 118 0
-39 -118 0
39 135 0
-39 -135 0
39 109 0
-39 -109 0
60 11 0
-60 -11 0
60 4 0
-60 -4 0
60 24 0
-60 -24 0
19 52 0
-19 -52 0
19 47 0
-19 -47 0
19 123 0
-19 -123 0
98 42 0
-98 -42 0
98 13 0
-98 -13 0
2 121 0
-2 -121 0
2 52 0
-2 -52 0
2 101 0
-2 -101 0
48 79 0
-48 -79 0
48 138 0
-48 -138 0
18 14 0
-18 -14 0
18 78 0
-18 -78 0
54 44 0
-54 -44 0
54 108 0
-54 -108 0
54 42 0
-54 -42 0
34 116 0
-34 -116 0
34 137 0
-34 -137 0
34 92 0
-34 -92 0
51 104 0
-51 -104 0
51 80 0
-51 -80 0
51 64 0
-51 -64 0
133 62 0
-133 -62 0
133 37 0
-133 -37 0
20 92 0
-20 -92 0
20 118 0
-20 -118 0
20 37 0
-20 -37 0
21 30 0
-21 -30 0
21 1 0
-21 -1 0
45 88 0
-45 -88 0
45 80 0
-45 -80 0
45 132 0
-45 -132 0
27 75 0
-27 -75 0
27 123 0
-27 -123 0
27 7 0
-27 -7 0
126 117 0
-126 -117 0
126 96 0
-126 -96 0
126 52 0
-126 -52 0
114 96 0
-114 -96 0
114 40 0
-114 -40 0
114 73 0
-114 -73 0
76 16 0
-76 -16 0
76 67 0
-76 -67 0
76 13 0
-76 -13 0
36 135 0
-36 -135 0
36 130 0
-36 -130 0
36 40 0
-36 -40 0
94 93 0
-94 -93 0
94 3 0
-94 -3 0
94 130 0
-94 -130 0
56 7 0
-56 -7 0
56 88 0
-56 -88 0
56 134 0
-56 -134 0
26 123 0
-26 -123 0
26 116 0
-26 -116 0
74 63 0
-74 -63 0
74 79 0
-74 -79 0
74 46 0
-74 -46 0
35 137 0
-35 -137 0
35 6 0
-35 -6 0
95 13 0
-95 -13 0
95 4 0
-95 -4 0
33 138 0
-33 -138 0
33 109 0
-33 -109 0
33 16 0
-33 -16 0
83 77 0
-83 -77 0
83 111 0
-83 -111 0
83 28 0
-83 -28 0
22 132 0
-22 -132 0
22 24 0
-22 -24 0
22 108 0
-22 -108 0
53 4 0
-53 -4 0
3 50 0
-3 -50 0
74 13 0
-74 -13 0
105 68 0
-105 -68 0
133 36 0
-133 -36 0
69 5 0
-69 -5 0
81 52 0
-81 -52 0
85 29 0
-85 -29 0
113 22 0
-113 -22 0
53 109 0
-53 -109 0
100 128 0
-100 -128 0
105 27 0
-105 -27 0
131 119 0
-131 -119 0
6 80 0
-6 -80 0
39 92 0
-39 -92 0
78 63 0
-78 -63 0
58 128 0
-58 -128 0
97 7 0
-97 -7 0
134 14 0
-134 -14 0
72 83 0
-72 -83 0
59 87 0
-59 -87 0
118 92 0
-118 -92 0
17 70 0
-17 -70 0
54 4 0
-54 -4 0
47 101 0
-47 -101 0
41 124 0
-41 -124 0
130 119 0
-130 -119 0
90 74 0
-90 -74 0
101 49 0
-101 -49 0
91 112 0
-91 -112 0
72 66 0
-72 -66 0
10 8 0
-10 -8 0
114 66 0
-114 -66 0
35 64 0
-35 -64 0
37 96 0
-37 -96 0
89 30 0
-89 -30 0
55 40 0
-55 -40 0
43 136 0
-43 -136 0
68 61 0
-68 -61 0
122 100 0
-122 -100 0
57 132 0
-57 -132 0
35 88 0
-35 -88 0
5 16 0
-5 -16 0
53 138 0
-53 -138 0
12 66 0
-12 -66 0
45 127 0
-45 -127 0
26 42 0
-26 -42 0
31 76 0
-31 -76 0
25 16 0
-25 -16 0
2 104 0
-2 -104 0
114 13 0
-114 -13 0
22 58 0
-22 -58 0
140 24 0
-140 -24 0
140 69 0
-140 -69 0
65 57 0
-65 -57 0
105 39 0
-105 -39 0
139 91 0
-139 -91 0
98 78 0
-98 -78 0
71 135 0
-71 -135 0
55 119 0
-55 -119 0
9 127 0
-9 -127 0
61 42 0
-61 -42 0
94 49 0
-94 -49 0
41 70 0
-41 -70 0
31 21 0
-31 -21 0
111 92 0
-111 -92 0
103 128 0
-103 -128 0
12 4 0
-12 -4 0
115 89 0
-115 -89 0
68 104 0
-68 -104 0
69 127 0
-69 -127 0
103 114 0
-103 -114 0
101 110 0
-101 -110 0
26 58 0
-26 -58 0
2 53 0
-2 -53 0
126 134 0
-126 -134 0
127 135 0
-127 -135 0
114 61 0
-114 -61 0
131 124 0
-131 -124 0
31 58 0
-31 -58 0
22 37 0
-22 -37 0
131 20 0
-131 -20 0
131 82 0
-131 -82 0
69 13 0
-69 -13 0
23 54 0
-23 -54 0
74 101 0
-74 -101 0
31 53 0
-31 -53 0
81 87 0
-81 -87 0
45 58 0
-45 -58 0
109 67 0
-109 -67 0
114 3 0
-114 -3 0
116 13 0
-116 -13 0
102 58 0
-102 -58 0
25 49 0
-25 -49 0
139 19 0
-139 -19 0
23 34 0
-23 -34 0
32 19 0
-32 -19 0
90 48 0
-90 -48 0
97 49 0
-97 -49 0
131 31 0
-131 -31 0
126 58 0
-126 -58 0
37 116 0
-37 -116 0
113 98 0
-113 -98 0
59 19 0
-59 -19 0
106 26 0
-106 -26 0
31 24 0
-31 -24 0
122 50 0
-122 -50 0
140 116 0
-140 -116 0
57 104 0
-57 -104 0
113 110 0
-113 -110 0
17 116 0
-17 -116 0
38 3 0
-38 -3 0
38 119 0
-38 -119 0
57 108 0
-57 -108 0
11 42 0
-11 -42 0
26 33 0
-26 -33 0
19 134 0
-19 -134 0
65 71 0
-65 -71 0
43 123 0
-43 -123 0
21 24 0
-21 -24 0
34 3 0
-34 -3 0
106 12 0
-106 -12 0
71 13 0
-71 -13 0
74 78 0
-74 -78 0
107 56 0
-107 -56 0
100 92 0
-100 -92 0
54 21 0
-54 -21 0
113 106 0
-113 -106 0
20 96 0
-20 -96 0
10 61 0
-10 -61 0
10 48 0
-10 -48 0
26 99 0
-26 -99 0
97 50 0
-97 -50 0
10 35 0
-10 -35 0
29 138 0
-29 -138 0
89 50 0
-89 -50 0
48 7 0
-48 -7 0
31 1 0
-31 -1 0
72 71 0
-72 -71 0
100 136 0
-100 -136 0
30 123 0
-30 -123 0
91 123 0
-91 -123 0
39 114 0
-39 -114 0
106 112 0
-106 -112 0
49 7 0
-49 -7 0
2 16 0
-2 -16 0
18 93 0
-18 -93 0
87 85 0
-87 -85 0
2 92 0
-2 -92 0
46 64 0
-46 -64 0
124 92 0
-124 -92 0
23 36 0
-23 -36 0
50 96 0
-50 -96 0
120 79 0
-120 -79 0
105 133 0
-105 -133 0
107 72 0
-107 -72 0
86 108 0
-86 -108 0
17 91 0
-17 -91 0
97 36 0
-97 -36 0
25 7 0
-25 -7 0
78 117 0
-78 -117 0
34 100 0
-34 -100 0
58 73 0
-58 -73 0
31 121 0
-31 -121 0
9 31 0
-9 -31 0
17 19 0
-17 -19 0
73 117 0
-73 -117 0
42 117 0
-42 -117 0
41 93 0
-41 -93 0
79 132 0
-79 -132 0
129 48 0
-129 -48 0
81 2 0
-81 -2 0
56 46 0
-56 -46 0
120 43 0
-120 -43 0
10 53 0
-10 -53 0
2 84 0
-2 -84 0
102 104 0
-102 -104 0
5 76 0
-5 -76 0
31 42 0
-31 -42 0
20 3 0
-20 -3 0
140 29 0
-140 -29 0
106 57 0
-106 -57 0
131 36 0
-131 -36 0
39 3 0
-39 -3 0
44 92 0
-44 -92 0
113 130 0
-113 -130 0
84 63 0
-84 -63 0
71 138 0
-71 -138 0
10 44 0
-10 -44 0
81 138 0
-81 -138 0
130 135 0
-130 -135 0
119 121 0
-119 -121 0
34 134 0
-34 -134 0
70 130 0
-70 -130 0
114 84 0
-114 -84 0
76 75 0
-76 -75 0
140 42 0
-140 -42 0
120 59 0
-120 -59 0
39 53 0
-39 -53 0
65 49 0
-65 -49 0
57 136 0
-57 -136 0
76 111 0
-76 -111 0
90 70 0
-90 -70 0
140 131 0
-140 -131 0
102 79 0
-102 -79 0
81 55 0
-81 -55 0
70 64 0
-70 -64 0
39 67 0
-39 -67 0
84 137 0
-84 -137 0
118 7 0
-118 -7 0
115 54 0
-115 -54 0
40 93 0
-40 -93 0
85 47 0
-85 -47 0
82 55 0
-82 -55 0
95 118 0
-95 -118 0
57 3 0
-57 -3 0
38 124 0
-38 -124 0
87 100 0
-87 -100 0
120 118 0
-120 -118 0
69 11 0
-69 -11 0
23 42 0
-23 -42 0
23 75 0
-23 -75 0
55 108 0
-55 -108 0
73 137 0
-73 -137 0
120 57 0
-120 -57 0
37 132 0
-37 -132 0
24 101 0
-24 -101 0
140 126 0
-140 -126 0
8 88 0
-8 -88 0
124 71 0
-124 -71 0
2 1 0
-2 -1 0
113 109 0
-113 -109 0
51 93 0
-51 -93 0
115 127 0
-115 -127 0
66 137 0
-66 -137 0
90 19 0
-90 -19 0
131 3 0
-131 -3 0
39 62 0
-39 -62 0
103 98 0
-103 -98 0
72 33 0
-72 -33 0
78 138 0
-78 -138 0
12 119 0
-12 -119 0
70 114 0
-70 -114 0
20 132 0
-20 -132 0
73 104 0
-73 -104 0
41 49 0
-41 -49 0
107 31 0
-107 -31 0
122 89 0
-122 -89 0
120 37 0
-120 -37 0
51 121 0
-51 -121 0
87 77 0
-87 -77 0
65 118 0
-65 -118 0
85 49 0
-85 -49 0
10 117 0
-10 -117 0
107 52 0
-107 -52 0
110 132 0
-110 -132 0
80 118 0
-80 -118 0
15 63 0
-15 -63 0
54 123 0
-54 -123 0
3 89 0
-3 -89 0
129 35 0
-129 -35 0
131 48 0
-131 -48 0
31 52 0
-31 -52 0
19 44 0
-19 -44 0
5 118 0
-5 -118 0
58 138 0
-58 -138 0
64 135 0
-64 -135 0
97 84 0
-97 -84 0
50 11 0
-50 -11 0
59 91 0
-59 -91 0
17 14 0
-17 -14 0
37 111 0
-37 -111 0
1 11 0
-1 -11 0
67 52 0
-67 -52 0
32 107 0
-32 -107 0
46 99 0
-46 -99 0
65 3 0
-65 -3 0
66 135 0
-66 -135 0
109 13 0
-109 -13 0
83 53 0
-83 -53 0
67 88 0
-67 -88 0
91 56 0
-91 -56 0
86 137 0
-86 -137 0
28 78 0
-28 -78 0
106 76 0
-106 -76 0
32 46 0
-32 -46 0
86 47 0
-86 -47 0
131 91 0
-131 -91 0
67 132 0
-67 -132 0
87 121 0
-87 -121 0
39 123 0
-39 -123 0
47 127 0
-47 -127 0
34 108 0
-34 -108 0
24 3 0
-24 -3 0
113 74 0
-113 -74 0
5 73 0
-5 -73 0
131 66 0
-131 -66 0
101 77 0
-101 -77 0
99 62 0
-99 -62 0
15 119 0
-15 -119 0
36 50 0
-36 -50 0
94 118 0
-94 -118 0
32 70 0
-32 -70 0
107 46 0
-107 -46 0
59 83 0
-59 -83 0
60 2 0
-60 -2 0
55 47 0
-55 -47 0
72 26 0
-72 -26 0
74 49 0
-74 -49 0
74 93 0
-74 -93 0
32 84 0
-32 -84 0
114 78 0
-114 -78 0
11 135 0
-11 -135 0
23 116 0
-23 -116 0
65 15 0
-65 -15 0
39 19 0
-39 -19 0
91 49 0
-91 -49 0
103 84 0
-103 -84 0
120 22 0
-120 -22 0
31 101 0
-31 -101 0
53 117 0
-53 -117 0
43 121 0
-43 -121 0
1 109 0
-1 -109 0
115 34 0
-115 -34 0
43 102 0
-43 -102 0
56 89 0
-56 -89 0
22 135 0
-22 -135 0
120 15 0
-120 -15 0
139 126 0
-139 -126 0
91 61 0
-91 -61 0
48 46 0
-48 -46 0
67 8 0
-67 -8 0
114 29 0
-114 -29 0
125 130 0
-125 -130 0
36 110 0
-36 -110 0
32 91 0
-32 -91 0
56 62 0
-56 -62 0
59 1 0
-59 -1 0
10 112 0
-10 -112 0
8 52 0
-8 -52 0
122 111 0
-122 -111 0
59 111 0
-59 -111 0
87 35 0
-87 -35 0
82 54 0
-82 -54 0
74 135 0
-74 -135 0
20 75 0
-20 -75 0
31 18 0
-31 -18 0
58 46 0
-58 -46 0
23 138 0
-23 -138 0
125 92 0
-125 -92 0
109 137 0
-109 -137 0
50 132 0
-50 -132 0
101 52 0
-101 -52 0
6 62 0
-6 -62 0
50 118 0
-50 -118 0
86 46 0
-86 -46 0
71 67 0
-71 -67 0
27 92 0
-27 -92 0
122 81 0
-122 -81 0
57 74 0
-57 -74 0
130 128 0
-130 -128 0
129 73 0
-129 -73 0
65 51 0
-65 -51 0
71 118 0
-71 -118 0
18 24 0
-18 -24 0
11 14 0
-11 -14 0
35 44 0
-35 -44 0
19 29 0
-19 -29 0
4 92 0
-4 -92 0
118 62 0
-118 -62 0
133 118 0
-133 -118 0
54 96 0
-54 -96 0
41 72 0
-41 -72 0
76 136 0
-76 -136 0
26 119 0
-26 -119 0
85 114 0
-85 -114 0
51 52 0
-51 -52 0
46 130 0
-46 -130 0
83 8 0
-83 -8 0
126 137 0
-126 -137 0
12 67 0
-12 -67 0
69 25 0
-69 -25 0
133 7 0
-133 -7 0
95 6 0
-95 -6 0
120 115 0
-120 -115 0
70 83 0
-70 -83 0
123 77 0
-123 -77 0
54 52 0
-54 -52 0
106 58 0
-106 -58 0
5 95 0
-5 -95 0
95 137 0
-95 -137 0
9 91 0
-9 -91 0
68 60 0
-68 -60 0
90 2 0
-90 -2 0
41 126 0
-41 -126 0
2 3 0
-2 -3 0
97 83 0
-97 -83 0
22 116 0
-22 -116 0
38 7 0
-38 -7 0
38 102 0
-38 -102 0
28 52 0
-28 -52 0
85 79 0
-85 -79 0
55 48 0
-55 -48 0
36 117 0
-36 -117 0
4 130 0
-4 -130 0
136 119 0
-136 -119 0
46 128 0
-46 -128 0
45 119 0
-45 -119 0
98 126 0
-98 -126 0
129 60 0
-129 -60 0
57 37 0
-57 -37 0
125 77 0
-125 -77 0
5 111 0
-5 -111 0
45 37 0
-45 -37 0
113 125 0
-113 -125 0
28 80 0
-28 -80 0
105 67 0
-105 -67 0
120 83 0
-120 -83 0
103 113 0
-103 -113 0
65 50 0
-65 -50 0
103 33 0
-103 -33 0
68 7 0
-68 -7 0
41 108 0
-41 -108 0
120 74 0
-120 -74 0
48 47 0
-48 -47 0
103 127 0
-103 -127 0
89 61 0
-89 -61 0
70 6 0
-70 -6 0
64 49 0
-64 -49 0
32 92 0
-32 -92 0
125 71 0
-125 -71 0
24 100 0
-24 -100 0
41 48 0
-41 -48 0
29 128 0
-29 -128 0
120 25 0
-120 -25 0
34 42 0
-34 -42 0
130 49 0
-130 -49 0
85 52 0
-85 -52 0
79 13 0
-79 -13 0
65 42 0
-65 -42 0
6 11 0
-6 -11 0
