FourierSAT_Github_AIJ/res/fs_1core/maxcut-140-630-0.7-6.cnf.txt
o 191
o 189
o 188
